c number of pigeons = 10 ; number of holes = 9
p cnf 90 820
1 2 3 4 5 6 7 8 9 0
10 11 12 13 14 15 16 17 18 0
19 20 21 22 23 24 25 26 27 0
28 29 30 31 32 33 34 35 36 0
37 38 39 40 41 42 43 44 45 0
46 47 48 49 50 51 52 53 54 0
55 56 57 58 59 60 61 62 63 0
64 65 66 67 68 69 70 71 72 0
73 74 75 76 77 78 79 80 81 0
82 83 84 85 86 87 88 89 90 0
-1 -10 0
-1 -19 0
-1 -28 0
-1 -37 0
-1 -46 0
-1 -55 0
-1 -64 0
-1 -73 0
-1 -82 0
-10 -1 0
-10 -19 0
-10 -28 0
-10 -37 0
-10 -46 0
-10 -55 0
-10 -64 0
-10 -73 0
-10 -82 0
-19 -1 0
-19 -10 0
-19 -28 0
-19 -37 0
-19 -46 0
-19 -55 0
-19 -64 0
-19 -73 0
-19 -82 0
-28 -1 0
-28 -10 0
-28 -19 0
-28 -37 0
-28 -46 0
-28 -55 0
-28 -64 0
-28 -73 0
-28 -82 0
-37 -1 0
-37 -10 0
-37 -19 0
-37 -28 0
-37 -46 0
-37 -55 0
-37 -64 0
-37 -73 0
-37 -82 0
-46 -1 0
-46 -10 0
-46 -19 0
-46 -28 0
-46 -37 0
-46 -55 0
-46 -64 0
-46 -73 0
-46 -82 0
-55 -1 0
-55 -10 0
-55 -19 0
-55 -28 0
-55 -37 0
-55 -46 0
-55 -64 0
-55 -73 0
-55 -82 0
-64 -1 0
-64 -10 0
-64 -19 0
-64 -28 0
-64 -37 0
-64 -46 0
-64 -55 0
-64 -73 0
-64 -82 0
-73 -1 0
-73 -10 0
-73 -19 0
-73 -28 0
-73 -37 0
-73 -46 0
-73 -55 0
-73 -64 0
-73 -82 0
-82 -1 0
-82 -10 0
-82 -19 0
-82 -28 0
-82 -37 0
-82 -46 0
-82 -55 0
-82 -64 0
-82 -73 0
-2 -11 0
-2 -20 0
-2 -29 0
-2 -38 0
-2 -47 0
-2 -56 0
-2 -65 0
-2 -74 0
-2 -83 0
-11 -2 0
-11 -20 0
-11 -29 0
-11 -38 0
-11 -47 0
-11 -56 0
-11 -65 0
-11 -74 0
-11 -83 0
-20 -2 0
-20 -11 0
-20 -29 0
-20 -38 0
-20 -47 0
-20 -56 0
-20 -65 0
-20 -74 0
-20 -83 0
-29 -2 0
-29 -11 0
-29 -20 0
-29 -38 0
-29 -47 0
-29 -56 0
-29 -65 0
-29 -74 0
-29 -83 0
-38 -2 0
-38 -11 0
-38 -20 0
-38 -29 0
-38 -47 0
-38 -56 0
-38 -65 0
-38 -74 0
-38 -83 0
-47 -2 0
-47 -11 0
-47 -20 0
-47 -29 0
-47 -38 0
-47 -56 0
-47 -65 0
-47 -74 0
-47 -83 0
-56 -2 0
-56 -11 0
-56 -20 0
-56 -29 0
-56 -38 0
-56 -47 0
-56 -65 0
-56 -74 0
-56 -83 0
-65 -2 0
-65 -11 0
-65 -20 0
-65 -29 0
-65 -38 0
-65 -47 0
-65 -56 0
-65 -74 0
-65 -83 0
-74 -2 0
-74 -11 0
-74 -20 0
-74 -29 0
-74 -38 0
-74 -47 0
-74 -56 0
-74 -65 0
-74 -83 0
-83 -2 0
-83 -11 0
-83 -20 0
-83 -29 0
-83 -38 0
-83 -47 0
-83 -56 0
-83 -65 0
-83 -74 0
-3 -12 0
-3 -21 0
-3 -30 0
-3 -39 0
-3 -48 0
-3 -57 0
-3 -66 0
-3 -75 0
-3 -84 0
-12 -3 0
-12 -21 0
-12 -30 0
-12 -39 0
-12 -48 0
-12 -57 0
-12 -66 0
-12 -75 0
-12 -84 0
-21 -3 0
-21 -12 0
-21 -30 0
-21 -39 0
-21 -48 0
-21 -57 0
-21 -66 0
-21 -75 0
-21 -84 0
-30 -3 0
-30 -12 0
-30 -21 0
-30 -39 0
-30 -48 0
-30 -57 0
-30 -66 0
-30 -75 0
-30 -84 0
-39 -3 0
-39 -12 0
-39 -21 0
-39 -30 0
-39 -48 0
-39 -57 0
-39 -66 0
-39 -75 0
-39 -84 0
-48 -3 0
-48 -12 0
-48 -21 0
-48 -30 0
-48 -39 0
-48 -57 0
-48 -66 0
-48 -75 0
-48 -84 0
-57 -3 0
-57 -12 0
-57 -21 0
-57 -30 0
-57 -39 0
-57 -48 0
-57 -66 0
-57 -75 0
-57 -84 0
-66 -3 0
-66 -12 0
-66 -21 0
-66 -30 0
-66 -39 0
-66 -48 0
-66 -57 0
-66 -75 0
-66 -84 0
-75 -3 0
-75 -12 0
-75 -21 0
-75 -30 0
-75 -39 0
-75 -48 0
-75 -57 0
-75 -66 0
-75 -84 0
-84 -3 0
-84 -12 0
-84 -21 0
-84 -30 0
-84 -39 0
-84 -48 0
-84 -57 0
-84 -66 0
-84 -75 0
-4 -13 0
-4 -22 0
-4 -31 0
-4 -40 0
-4 -49 0
-4 -58 0
-4 -67 0
-4 -76 0
-4 -85 0
-13 -4 0
-13 -22 0
-13 -31 0
-13 -40 0
-13 -49 0
-13 -58 0
-13 -67 0
-13 -76 0
-13 -85 0
-22 -4 0
-22 -13 0
-22 -31 0
-22 -40 0
-22 -49 0
-22 -58 0
-22 -67 0
-22 -76 0
-22 -85 0
-31 -4 0
-31 -13 0
-31 -22 0
-31 -40 0
-31 -49 0
-31 -58 0
-31 -67 0
-31 -76 0
-31 -85 0
-40 -4 0
-40 -13 0
-40 -22 0
-40 -31 0
-40 -49 0
-40 -58 0
-40 -67 0
-40 -76 0
-40 -85 0
-49 -4 0
-49 -13 0
-49 -22 0
-49 -31 0
-49 -40 0
-49 -58 0
-49 -67 0
-49 -76 0
-49 -85 0
-58 -4 0
-58 -13 0
-58 -22 0
-58 -31 0
-58 -40 0
-58 -49 0
-58 -67 0
-58 -76 0
-58 -85 0
-67 -4 0
-67 -13 0
-67 -22 0
-67 -31 0
-67 -40 0
-67 -49 0
-67 -58 0
-67 -76 0
-67 -85 0
-76 -4 0
-76 -13 0
-76 -22 0
-76 -31 0
-76 -40 0
-76 -49 0
-76 -58 0
-76 -67 0
-76 -85 0
-85 -4 0
-85 -13 0
-85 -22 0
-85 -31 0
-85 -40 0
-85 -49 0
-85 -58 0
-85 -67 0
-85 -76 0
-5 -14 0
-5 -23 0
-5 -32 0
-5 -41 0
-5 -50 0
-5 -59 0
-5 -68 0
-5 -77 0
-5 -86 0
-14 -5 0
-14 -23 0
-14 -32 0
-14 -41 0
-14 -50 0
-14 -59 0
-14 -68 0
-14 -77 0
-14 -86 0
-23 -5 0
-23 -14 0
-23 -32 0
-23 -41 0
-23 -50 0
-23 -59 0
-23 -68 0
-23 -77 0
-23 -86 0
-32 -5 0
-32 -14 0
-32 -23 0
-32 -41 0
-32 -50 0
-32 -59 0
-32 -68 0
-32 -77 0
-32 -86 0
-41 -5 0
-41 -14 0
-41 -23 0
-41 -32 0
-41 -50 0
-41 -59 0
-41 -68 0
-41 -77 0
-41 -86 0
-50 -5 0
-50 -14 0
-50 -23 0
-50 -32 0
-50 -41 0
-50 -59 0
-50 -68 0
-50 -77 0
-50 -86 0
-59 -5 0
-59 -14 0
-59 -23 0
-59 -32 0
-59 -41 0
-59 -50 0
-59 -68 0
-59 -77 0
-59 -86 0
-68 -5 0
-68 -14 0
-68 -23 0
-68 -32 0
-68 -41 0
-68 -50 0
-68 -59 0
-68 -77 0
-68 -86 0
-77 -5 0
-77 -14 0
-77 -23 0
-77 -32 0
-77 -41 0
-77 -50 0
-77 -59 0
-77 -68 0
-77 -86 0
-86 -5 0
-86 -14 0
-86 -23 0
-86 -32 0
-86 -41 0
-86 -50 0
-86 -59 0
-86 -68 0
-86 -77 0
-6 -15 0
-6 -24 0
-6 -33 0
-6 -42 0
-6 -51 0
-6 -60 0
-6 -69 0
-6 -78 0
-6 -87 0
-15 -6 0
-15 -24 0
-15 -33 0
-15 -42 0
-15 -51 0
-15 -60 0
-15 -69 0
-15 -78 0
-15 -87 0
-24 -6 0
-24 -15 0
-24 -33 0
-24 -42 0
-24 -51 0
-24 -60 0
-24 -69 0
-24 -78 0
-24 -87 0
-33 -6 0
-33 -15 0
-33 -24 0
-33 -42 0
-33 -51 0
-33 -60 0
-33 -69 0
-33 -78 0
-33 -87 0
-42 -6 0
-42 -15 0
-42 -24 0
-42 -33 0
-42 -51 0
-42 -60 0
-42 -69 0
-42 -78 0
-42 -87 0
-51 -6 0
-51 -15 0
-51 -24 0
-51 -33 0
-51 -42 0
-51 -60 0
-51 -69 0
-51 -78 0
-51 -87 0
-60 -6 0
-60 -15 0
-60 -24 0
-60 -33 0
-60 -42 0
-60 -51 0
-60 -69 0
-60 -78 0
-60 -87 0
-69 -6 0
-69 -15 0
-69 -24 0
-69 -33 0
-69 -42 0
-69 -51 0
-69 -60 0
-69 -78 0
-69 -87 0
-78 -6 0
-78 -15 0
-78 -24 0
-78 -33 0
-78 -42 0
-78 -51 0
-78 -60 0
-78 -69 0
-78 -87 0
-87 -6 0
-87 -15 0
-87 -24 0
-87 -33 0
-87 -42 0
-87 -51 0
-87 -60 0
-87 -69 0
-87 -78 0
-7 -16 0
-7 -25 0
-7 -34 0
-7 -43 0
-7 -52 0
-7 -61 0
-7 -70 0
-7 -79 0
-7 -88 0
-16 -7 0
-16 -25 0
-16 -34 0
-16 -43 0
-16 -52 0
-16 -61 0
-16 -70 0
-16 -79 0
-16 -88 0
-25 -7 0
-25 -16 0
-25 -34 0
-25 -43 0
-25 -52 0
-25 -61 0
-25 -70 0
-25 -79 0
-25 -88 0
-34 -7 0
-34 -16 0
-34 -25 0
-34 -43 0
-34 -52 0
-34 -61 0
-34 -70 0
-34 -79 0
-34 -88 0
-43 -7 0
-43 -16 0
-43 -25 0
-43 -34 0
-43 -52 0
-43 -61 0
-43 -70 0
-43 -79 0
-43 -88 0
-52 -7 0
-52 -16 0
-52 -25 0
-52 -34 0
-52 -43 0
-52 -61 0
-52 -70 0
-52 -79 0
-52 -88 0
-61 -7 0
-61 -16 0
-61 -25 0
-61 -34 0
-61 -43 0
-61 -52 0
-61 -70 0
-61 -79 0
-61 -88 0
-70 -7 0
-70 -16 0
-70 -25 0
-70 -34 0
-70 -43 0
-70 -52 0
-70 -61 0
-70 -79 0
-70 -88 0
-79 -7 0
-79 -16 0
-79 -25 0
-79 -34 0
-79 -43 0
-79 -52 0
-79 -61 0
-79 -70 0
-79 -88 0
-88 -7 0
-88 -16 0
-88 -25 0
-88 -34 0
-88 -43 0
-88 -52 0
-88 -61 0
-88 -70 0
-88 -79 0
-8 -17 0
-8 -26 0
-8 -35 0
-8 -44 0
-8 -53 0
-8 -62 0
-8 -71 0
-8 -80 0
-8 -89 0
-17 -8 0
-17 -26 0
-17 -35 0
-17 -44 0
-17 -53 0
-17 -62 0
-17 -71 0
-17 -80 0
-17 -89 0
-26 -8 0
-26 -17 0
-26 -35 0
-26 -44 0
-26 -53 0
-26 -62 0
-26 -71 0
-26 -80 0
-26 -89 0
-35 -8 0
-35 -17 0
-35 -26 0
-35 -44 0
-35 -53 0
-35 -62 0
-35 -71 0
-35 -80 0
-35 -89 0
-44 -8 0
-44 -17 0
-44 -26 0
-44 -35 0
-44 -53 0
-44 -62 0
-44 -71 0
-44 -80 0
-44 -89 0
-53 -8 0
-53 -17 0
-53 -26 0
-53 -35 0
-53 -44 0
-53 -62 0
-53 -71 0
-53 -80 0
-53 -89 0
-62 -8 0
-62 -17 0
-62 -26 0
-62 -35 0
-62 -44 0
-62 -53 0
-62 -71 0
-62 -80 0
-62 -89 0
-71 -8 0
-71 -17 0
-71 -26 0
-71 -35 0
-71 -44 0
-71 -53 0
-71 -62 0
-71 -80 0
-71 -89 0
-80 -8 0
-80 -17 0
-80 -26 0
-80 -35 0
-80 -44 0
-80 -53 0
-80 -62 0
-80 -71 0
-80 -89 0
-89 -8 0
-89 -17 0
-89 -26 0
-89 -35 0
-89 -44 0
-89 -53 0
-89 -62 0
-89 -71 0
-89 -80 0
-9 -18 0
-9 -27 0
-9 -36 0
-9 -45 0
-9 -54 0
-9 -63 0
-9 -72 0
-9 -81 0
-9 -90 0
-18 -9 0
-18 -27 0
-18 -36 0
-18 -45 0
-18 -54 0
-18 -63 0
-18 -72 0
-18 -81 0
-18 -90 0
-27 -9 0
-27 -18 0
-27 -36 0
-27 -45 0
-27 -54 0
-27 -63 0
-27 -72 0
-27 -81 0
-27 -90 0
-36 -9 0
-36 -18 0
-36 -27 0
-36 -45 0
-36 -54 0
-36 -63 0
-36 -72 0
-36 -81 0
-36 -90 0
-45 -9 0
-45 -18 0
-45 -27 0
-45 -36 0
-45 -54 0
-45 -63 0
-45 -72 0
-45 -81 0
-45 -90 0
-54 -9 0
-54 -18 0
-54 -27 0
-54 -36 0
-54 -45 0
-54 -63 0
-54 -72 0
-54 -81 0
-54 -90 0
-63 -9 0
-63 -18 0
-63 -27 0
-63 -36 0
-63 -45 0
-63 -54 0
-63 -72 0
-63 -81 0
-63 -90 0
-72 -9 0
-72 -18 0
-72 -27 0
-72 -36 0
-72 -45 0
-72 -54 0
-72 -63 0
-72 -81 0
-72 -90 0
-81 -9 0
-81 -18 0
-81 -27 0
-81 -36 0
-81 -45 0
-81 -54 0
-81 -63 0
-81 -72 0
-81 -90 0
-90 -9 0
-90 -18 0
-90 -27 0
-90 -36 0
-90 -45 0
-90 -54 0
-90 -63 0
-90 -72 0
-90 -81 0